# hf/cc-pVDZ opt

opt hco+

1 1
H
C 1 1.1
X 2 1.0 1 90.0
O 2 1.1 3 90.0 1 180.0 

